p cnf 20 20
-1 19 -9 0
14 20 6 0
12 20 -18 0
15 -1 -3 0
-7 -20 -2 0
-11 -5 -9 0
1 14 -9 0
-9 3 18 0
-16 -2 4 0
19 7 3 0
3 -18 19 0
11 19 7 0
16 -13 -1 0
-10 15 12 0
9 14 -18 0
-7 17 18 0
-2 5 -14 0
20 16 -7 0
12 15 8 0
4 15 -17 0
